WARNING: for repeatability, setting FPU to use double precision
 -----------------------------------------------------------------------------------------------------------------------
|                                 manysat2.0    4 thread(s) on 8 core(s)                                                |
 -----------------------------------------------------------------------------------------------------------------------
 ===============================================[ Problem Statistics ]==================================================
|                                                                                                                       |
|  Number of cores:                 4                                                                                   |
|  Number of variables:           600                                                                                   |
|  Number of clauses:           27034                                                                                   |
|  Parse time:                   0.04 s                                                                                 |
|                                                                                                                       |
 ==============================================[ Search Statistics ]====================================================
|   Thread  | Conflicts |          ORIGINAL         |          LEARNT          |  exported  / imported      |  Progress |
|    (id)   |           |    Vars  Clauses Literals |    Limit  Clauses Lit/Cl |  (clauses by restart)      |           |
 =======================================================================================================================
 =======================================================================================================================
 -----------------------------------------------------------------------------------------------------------------------
| ManySAT 2.2 - all threads statistics           DETERMINISTIC MODE ? N              initial limit export clauses :  10 |
|-----------------------------------------------------------------------------------------------------------------------|
|  Thread  | winner  |   #restarts   |   decisions   |  #conflicts   |   % shared cls  |  #extra units | #extra clauses |         
|----------|---------|---------------|---------------|---------------|-----------------|---------------|----------------|
|        0 |       x |             1 |            11 |             0 |             0 % |             0 |              0 |
|        1 |         |             1 |            15 |             0 |             0 % |             0 |              0 |
|        2 |         |             1 |            13 |             0 |             0 % |             0 |              0 |
|        3 |         |             1 |            17 |             0 |             0 % |             0 |              0 |
|----------------------------------------------------|---------------|-----------------|---------------|----------------|
|                                                    |             0 |             0 % |             0 |              0 |
 -----------------------------------------------------------------------------------------------------------------------
 DETERMINISTIC_MODE? : NO 
 CONTROL POLICY?	 : STATIC (fixed Limit Export Clauses)  
 LIMIT EXPORT CLAUSES (PAIRWISE) : [identity] x 10

  ----------------------------------------         
   winner:  more statistics           
  ----------------------------------------         
  restarts              : 1
  conflicts             : 0              (0 /sec)
  decisions             : 11             (0.00 % random) (212 /sec)
  propagations          : 600            (11538 /sec)
  conflict literals     : 0              (-nan % deleted)
  Memory used           : 449.00 MB
  CPU time              : 0.052003 s

SATISFIABLE
WARNING: for repeatability, setting FPU to use double precision
 -----------------------------------------------------------------------------------------------------------------------
|                                 manysat2.0    4 thread(s) on 8 core(s)                                                |
 -----------------------------------------------------------------------------------------------------------------------
 ===============================================[ Problem Statistics ]==================================================
|                                                                                                                       |
|  Number of cores:                 4                                                                                   |
|  Number of variables:           600                                                                                   |
|  Number of clauses:           27034                                                                                   |
|  Parse time:                   0.03 s                                                                                 |
|                                                                                                                       |
 ==============================================[ Search Statistics ]====================================================
|   Thread  | Conflicts |          ORIGINAL         |          LEARNT          |  exported  / imported      |  Progress |
|    (id)   |           |    Vars  Clauses Literals |    Limit  Clauses Lit/Cl |  (clauses by restart)      |           |
 =======================================================================================================================
 =======================================================================================================================
 -----------------------------------------------------------------------------------------------------------------------
| ManySAT 2.2 - all threads statistics           DETERMINISTIC MODE ? N              initial limit export clauses :   1 |
|-----------------------------------------------------------------------------------------------------------------------|
|  Thread  | winner  |   #restarts   |   decisions   |  #conflicts   |   % shared cls  |  #extra units | #extra clauses |         
|----------|---------|---------------|---------------|---------------|-----------------|---------------|----------------|
|        0 |       x |             1 |            11 |             0 |             0 % |             0 |              0 |
|        1 |         |             1 |            15 |             0 |             0 % |             0 |              0 |
|        2 |         |             1 |            13 |             0 |             0 % |             0 |              0 |
|        3 |         |             1 |            17 |             0 |             0 % |             0 |              0 |
|----------------------------------------------------|---------------|-----------------|---------------|----------------|
|                                                    |             0 |             0 % |             0 |              0 |
 -----------------------------------------------------------------------------------------------------------------------
 DETERMINISTIC_MODE? : NO 
 CONTROL POLICY?	 : STATIC (fixed Limit Export Clauses)  
 LIMIT EXPORT CLAUSES (PAIRWISE) : [identity] x 1

  ----------------------------------------         
   winner:  more statistics           
  ----------------------------------------         
  restarts              : 1
  conflicts             : 0              (0 /sec)
  decisions             : 11             (0.00 % random) (344 /sec)
  propagations          : 600            (18749 /sec)
  conflict literals     : 0              (-nan % deleted)
  Memory used           : 449.00 MB
  CPU time              : 0.032002 s

SATISFIABLE
WARNING: for repeatability, setting FPU to use double precision
 -----------------------------------------------------------------------------------------------------------------------
|                                 manysat2.0    4 thread(s) on 8 core(s)                                                |
 -----------------------------------------------------------------------------------------------------------------------
 ===============================================[ Problem Statistics ]==================================================
|                                                                                                                       |
|  Number of cores:                 4                                                                                   |
|  Number of variables:           600                                                                                   |
|  Number of clauses:           27034                                                                                   |
|  Parse time:                   0.03 s                                                                                 |
|                                                                                                                       |
 ==============================================[ Search Statistics ]====================================================
|   Thread  | Conflicts |          ORIGINAL         |          LEARNT          |  exported  / imported      |  Progress |
|    (id)   |           |    Vars  Clauses Literals |    Limit  Clauses Lit/Cl |  (clauses by restart)      |           |
 =======================================================================================================================
 =======================================================================================================================
 -----------------------------------------------------------------------------------------------------------------------
| ManySAT 2.2 - all threads statistics           DETERMINISTIC MODE ? N              initial limit export clauses :  20 |
|-----------------------------------------------------------------------------------------------------------------------|
|  Thread  | winner  |   #restarts   |   decisions   |  #conflicts   |   % shared cls  |  #extra units | #extra clauses |         
|----------|---------|---------------|---------------|---------------|-----------------|---------------|----------------|
|        0 |       x |             1 |            11 |             0 |             0 % |             0 |              0 |
|        1 |         |             1 |            15 |             0 |             0 % |             0 |              0 |
|        2 |         |             1 |            13 |             0 |             0 % |             0 |              0 |
|        3 |         |             1 |            17 |             0 |             0 % |             0 |              0 |
|----------------------------------------------------|---------------|-----------------|---------------|----------------|
|                                                    |             0 |             0 % |             0 |              0 |
 -----------------------------------------------------------------------------------------------------------------------
 DETERMINISTIC_MODE? : NO 
 CONTROL POLICY?	 : STATIC (fixed Limit Export Clauses)  
 LIMIT EXPORT CLAUSES (PAIRWISE) : [identity] x 20

  ----------------------------------------         
   winner:  more statistics           
  ----------------------------------------         
  restarts              : 1
  conflicts             : 0              (0 /sec)
  decisions             : 11             (0.00 % random) (344 /sec)
  propagations          : 600            (18749 /sec)
  conflict literals     : 0              (-nan % deleted)
  Memory used           : 448.00 MB
  CPU time              : 0.032002 s

SATISFIABLE
WARNING: for repeatability, setting FPU to use double precision
 -----------------------------------------------------------------------------------------------------------------------
|                                 manysat2.0    4 thread(s) on 8 core(s)                                                |
 -----------------------------------------------------------------------------------------------------------------------
 ===============================================[ Problem Statistics ]==================================================
|                                                                                                                       |
|  Number of cores:                 4                                                                                   |
|  Number of variables:           600                                                                                   |
|  Number of clauses:           27034                                                                                   |
|  Parse time:                   0.05 s                                                                                 |
|                                                                                                                       |
 ==============================================[ Search Statistics ]====================================================
|   Thread  | Conflicts |          ORIGINAL         |          LEARNT          |  exported  / imported      |  Progress |
|    (id)   |           |    Vars  Clauses Literals |    Limit  Clauses Lit/Cl |  (clauses by restart)      |           |
 =======================================================================================================================
 =======================================================================================================================
 -----------------------------------------------------------------------------------------------------------------------
| ManySAT 2.2 - all threads statistics           DETERMINISTIC MODE ? N              initial limit export clauses :   5 |
|-----------------------------------------------------------------------------------------------------------------------|
|  Thread  | winner  |   #restarts   |   decisions   |  #conflicts   |   % shared cls  |  #extra units | #extra clauses |         
|----------|---------|---------------|---------------|---------------|-----------------|---------------|----------------|
|        0 |       x |             1 |            11 |             0 |             0 % |             0 |              0 |
|        1 |         |             1 |            15 |             0 |             0 % |             0 |              0 |
|        2 |         |             1 |            13 |             0 |             0 % |             0 |              0 |
|        3 |         |             1 |            17 |             0 |             0 % |             0 |              0 |
|----------------------------------------------------|---------------|-----------------|---------------|----------------|
|                                                    |             0 |             0 % |             0 |              0 |
 -----------------------------------------------------------------------------------------------------------------------
 DETERMINISTIC_MODE? : NO 
 CONTROL POLICY?	 : STATIC (fixed Limit Export Clauses)  
 LIMIT EXPORT CLAUSES (PAIRWISE) : [identity] x 5

  ----------------------------------------         
   winner:  more statistics           
  ----------------------------------------         
  restarts              : 1
  conflicts             : 0              (0 /sec)
  decisions             : 11             (0.00 % random) (196 /sec)
  propagations          : 600            (10714 /sec)
  conflict literals     : 0              (-nan % deleted)
  Memory used           : 420.00 MB
  CPU time              : 0.056003 s

SATISFIABLE
WARNING: for repeatability, setting FPU to use double precision
 -----------------------------------------------------------------------------------------------------------------------
|                                 manysat2.0    8 thread(s) on 8 core(s)                                                |
 -----------------------------------------------------------------------------------------------------------------------
ERROR! Could not open file: /home/sat/sc14-app/complete-300-0.1-18-98765432130018.cnf
WARNING: for repeatability, setting FPU to use double precision
 -----------------------------------------------------------------------------------------------------------------------
|                                 manysat2.0    8 thread(s) on 8 core(s)                                                |
 -----------------------------------------------------------------------------------------------------------------------
ERROR! Could not open file: /home/sat/sc14-app/complete-300-0.1-18-98765432130018.cnf
WARNING: for repeatability, setting FPU to use double precision
 -----------------------------------------------------------------------------------------------------------------------
|                                 manysat2.0    8 thread(s) on 8 core(s)                                                |
 -----------------------------------------------------------------------------------------------------------------------
ERROR! Could not open file: /home/sat/sc14-app/complete-300-0.1-18-98765432130018.cnf
WARNING: for repeatability, setting FPU to use double precision
 -----------------------------------------------------------------------------------------------------------------------
|                                 manysat2.0    8 thread(s) on 8 core(s)                                                |
 -----------------------------------------------------------------------------------------------------------------------
 ===============================================[ Problem Statistics ]==================================================
|                                                                                                                       |
|  Number of cores:                 8                                                                                   |
|  Number of variables:           600                                                                                   |
|  Number of clauses:           27034                                                                                   |
|  Parse time:                   0.06 s                                                                                 |
|                                                                                                                       |
 ==============================================[ Search Statistics ]====================================================
|   Thread  | Conflicts |          ORIGINAL         |          LEARNT          |  exported  / imported      |  Progress |
|    (id)   |           |    Vars  Clauses Literals |    Limit  Clauses Lit/Cl |  (clauses by restart)      |           |
 =======================================================================================================================
 =======================================================================================================================
 -----------------------------------------------------------------------------------------------------------------------
| ManySAT 2.2 - all threads statistics           DETERMINISTIC MODE ? N              initial limit export clauses :  10 |
|-----------------------------------------------------------------------------------------------------------------------|
|  Thread  | winner  |   #restarts   |   decisions   |  #conflicts   |   % shared cls  |  #extra units | #extra clauses |         
|----------|---------|---------------|---------------|---------------|-----------------|---------------|----------------|
|        0 |       x |             1 |            11 |             0 |             0 % |             0 |              0 |
|        1 |         |             1 |            15 |             0 |             0 % |             0 |              0 |
|        2 |         |             1 |            13 |             0 |             0 % |             0 |              0 |
|        3 |         |             1 |            17 |             0 |             0 % |             0 |              0 |
|        4 |         |             1 |            15 |             0 |             0 % |             0 |              0 |
|        5 |         |             1 |            14 |             0 |             0 % |             0 |              0 |
|        6 |         |             1 |            17 |             0 |             0 % |             0 |              0 |
|        7 |         |             1 |            13 |             0 |             0 % |             0 |              0 |
|----------------------------------------------------|---------------|-----------------|---------------|----------------|
|                                                    |             0 |             0 % |             0 |              0 |
 -----------------------------------------------------------------------------------------------------------------------
 DETERMINISTIC_MODE? : NO 
 CONTROL POLICY?	 : STATIC (fixed Limit Export Clauses)  
 LIMIT EXPORT CLAUSES (PAIRWISE) : [identity] x 10

  ----------------------------------------         
   winner:  more statistics           
  ----------------------------------------         
  restarts              : 1
  conflicts             : 0              (0 /sec)
  decisions             : 11             (0.00 % random) (89 /sec)
  propagations          : 600            (4838 /sec)
  conflict literals     : 0              (-nan % deleted)
  Memory used           : 950.00 MB
  CPU time              : 0.124007 s

SATISFIABLE
WARNING: for repeatability, setting FPU to use double precision
 -----------------------------------------------------------------------------------------------------------------------
|                                 manysat2.0    8 thread(s) on 8 core(s)                                                |
 -----------------------------------------------------------------------------------------------------------------------
 ===============================================[ Problem Statistics ]==================================================
|                                                                                                                       |
|  Number of cores:                 8                                                                                   |
|  Number of variables:           600                                                                                   |
|  Number of clauses:           27034                                                                                   |
|  Parse time:                   0.06 s                                                                                 |
|                                                                                                                       |
 ==============================================[ Search Statistics ]====================================================
|   Thread  | Conflicts |          ORIGINAL         |          LEARNT          |  exported  / imported      |  Progress |
|    (id)   |           |    Vars  Clauses Literals |    Limit  Clauses Lit/Cl |  (clauses by restart)      |           |
 =======================================================================================================================
 =======================================================================================================================
 -----------------------------------------------------------------------------------------------------------------------
| ManySAT 2.2 - all threads statistics           DETERMINISTIC MODE ? N              initial limit export clauses :  20 |
|-----------------------------------------------------------------------------------------------------------------------|
|  Thread  | winner  |   #restarts   |   decisions   |  #conflicts   |   % shared cls  |  #extra units | #extra clauses |         
|----------|---------|---------------|---------------|---------------|-----------------|---------------|----------------|
|        0 |       x |             1 |            11 |             0 |             0 % |             0 |              0 |
|        1 |         |             1 |            15 |             0 |             0 % |             0 |              0 |
|        2 |         |             1 |            13 |             0 |             0 % |             0 |              0 |
|        3 |         |             1 |            17 |             0 |             0 % |             0 |              0 |
|        4 |         |             1 |            15 |             0 |             0 % |             0 |              0 |
|        5 |         |             1 |            14 |             0 |             0 % |             0 |              0 |
|        6 |         |             1 |            17 |             0 |             0 % |             0 |              0 |
|        7 |         |             1 |            13 |             0 |             0 % |             0 |              0 |
|----------------------------------------------------|---------------|-----------------|---------------|----------------|
|                                                    |             0 |             0 % |             0 |              0 |
 -----------------------------------------------------------------------------------------------------------------------
 DETERMINISTIC_MODE? : NO 
 CONTROL POLICY?	 : STATIC (fixed Limit Export Clauses)  
 LIMIT EXPORT CLAUSES (PAIRWISE) : [identity] x 20

  ----------------------------------------         
   winner:  more statistics           
  ----------------------------------------         
  restarts              : 1
  conflicts             : 0              (0 /sec)
  decisions             : 11             (0.00 % random) (92 /sec)
  propagations          : 600            (5000 /sec)
  conflict literals     : 0              (-nan % deleted)
  Memory used           : 886.00 MB
  CPU time              : 0.120007 s

SATISFIABLE
WARNING: for repeatability, setting FPU to use double precision
 -----------------------------------------------------------------------------------------------------------------------
|                                 manysat2.0    8 thread(s) on 8 core(s)                                                |
 -----------------------------------------------------------------------------------------------------------------------
 ===============================================[ Problem Statistics ]==================================================
|                                                                                                                       |
|  Number of cores:                 8                                                                                   |
|  Number of variables:           600                                                                                   |
|  Number of clauses:           27034                                                                                   |
|  Parse time:                   0.04 s                                                                                 |
|                                                                                                                       |
 ==============================================[ Search Statistics ]====================================================
|   Thread  | Conflicts |          ORIGINAL         |          LEARNT          |  exported  / imported      |  Progress |
|    (id)   |           |    Vars  Clauses Literals |    Limit  Clauses Lit/Cl |  (clauses by restart)      |           |
 =======================================================================================================================
 =======================================================================================================================
 -----------------------------------------------------------------------------------------------------------------------
| ManySAT 2.2 - all threads statistics           DETERMINISTIC MODE ? N              initial limit export clauses :  25 |
|-----------------------------------------------------------------------------------------------------------------------|
|  Thread  | winner  |   #restarts   |   decisions   |  #conflicts   |   % shared cls  |  #extra units | #extra clauses |         
|----------|---------|---------------|---------------|---------------|-----------------|---------------|----------------|
|        0 |       x |             1 |            11 |             0 |             0 % |             0 |              0 |
|        1 |         |             1 |            15 |             0 |             0 % |             0 |              0 |
|        2 |         |             1 |            13 |             0 |             0 % |             0 |              0 |
|        3 |         |             1 |            17 |             0 |             0 % |             0 |              0 |
|        4 |         |             1 |            15 |             0 |             0 % |             0 |              0 |
|        5 |         |             1 |            14 |             0 |             0 % |             0 |              0 |
|        6 |         |             1 |            17 |             0 |             0 % |             0 |              0 |
|        7 |         |             1 |            13 |             0 |             0 % |             0 |              0 |
|----------------------------------------------------|---------------|-----------------|---------------|----------------|
|                                                    |             0 |             0 % |             0 |              0 |
 -----------------------------------------------------------------------------------------------------------------------
 DETERMINISTIC_MODE? : NO 
 CONTROL POLICY?	 : STATIC (fixed Limit Export Clauses)  
 LIMIT EXPORT CLAUSES (PAIRWISE) : [identity] x 25

  ----------------------------------------         
   winner:  more statistics           
  ----------------------------------------         
  restarts              : 1
  conflicts             : 0              (0 /sec)
  decisions             : 11             (0.00 % random) (125 /sec)
  propagations          : 600            (6818 /sec)
  conflict literals     : 0              (-nan % deleted)
  Memory used           : 986.00 MB
  CPU time              : 0.088005 s

SATISFIABLE
WARNING: for repeatability, setting FPU to use double precision
 -----------------------------------------------------------------------------------------------------------------------
|                                 manysat2.0    8 thread(s) on 8 core(s)                                                |
 -----------------------------------------------------------------------------------------------------------------------
 ===============================================[ Problem Statistics ]==================================================
|                                                                                                                       |
|  Number of cores:                 8                                                                                   |
|  Number of variables:           600                                                                                   |
|  Number of clauses:           27034                                                                                   |
|  Parse time:                   0.07 s                                                                                 |
|                                                                                                                       |
 ==============================================[ Search Statistics ]====================================================
|   Thread  | Conflicts |          ORIGINAL         |          LEARNT          |  exported  / imported      |  Progress |
|    (id)   |           |    Vars  Clauses Literals |    Limit  Clauses Lit/Cl |  (clauses by restart)      |           |
 =======================================================================================================================
 =======================================================================================================================
 -----------------------------------------------------------------------------------------------------------------------
| ManySAT 2.2 - all threads statistics           DETERMINISTIC MODE ? N              initial limit export clauses :  50 |
|-----------------------------------------------------------------------------------------------------------------------|
|  Thread  | winner  |   #restarts   |   decisions   |  #conflicts   |   % shared cls  |  #extra units | #extra clauses |         
|----------|---------|---------------|---------------|---------------|-----------------|---------------|----------------|
|        0 |       x |             1 |            11 |             0 |             0 % |             0 |              0 |
|        1 |         |             1 |            15 |             0 |             0 % |             0 |              0 |
|        2 |         |             1 |            13 |             0 |             0 % |             0 |              0 |
|        3 |         |             1 |            17 |             0 |             0 % |             0 |              0 |
|        4 |         |             1 |            15 |             0 |             0 % |             0 |              0 |
|        5 |         |             1 |            14 |             0 |             0 % |             0 |              0 |
|        6 |         |             1 |            17 |             0 |             0 % |             0 |              0 |
|        7 |         |             1 |            13 |             0 |             0 % |             0 |              0 |
|----------------------------------------------------|---------------|-----------------|---------------|----------------|
|                                                    |             0 |             0 % |             0 |              0 |
 -----------------------------------------------------------------------------------------------------------------------
 DETERMINISTIC_MODE? : NO 
 CONTROL POLICY?	 : STATIC (fixed Limit Export Clauses)  
 LIMIT EXPORT CLAUSES (PAIRWISE) : [identity] x 50

  ----------------------------------------         
   winner:  more statistics           
  ----------------------------------------         
  restarts              : 1
  conflicts             : 0              (0 /sec)
  decisions             : 11             (0.00 % random) (81 /sec)
  propagations          : 600            (4412 /sec)
  conflict literals     : 0              (-nan % deleted)
  Memory used           : 694.00 MB
  CPU time              : 0.136008 s

SATISFIABLE
WARNING: for repeatability, setting FPU to use double precision
 -----------------------------------------------------------------------------------------------------------------------
|                                 manysat2.0    8 thread(s) on 8 core(s)                                                |
 -----------------------------------------------------------------------------------------------------------------------
 ===============================================[ Problem Statistics ]==================================================
|                                                                                                                       |
|  Number of cores:                 8                                                                                   |
|  Number of variables:           600                                                                                   |
|  Number of clauses:           27034                                                                                   |
|  Parse time:                   0.06 s                                                                                 |
|                                                                                                                       |
 ==============================================[ Search Statistics ]====================================================
|   Thread  | Conflicts |          ORIGINAL         |          LEARNT          |  exported  / imported      |  Progress |
|    (id)   |           |    Vars  Clauses Literals |    Limit  Clauses Lit/Cl |  (clauses by restart)      |           |
 =======================================================================================================================
 =======================================================================================================================
 -----------------------------------------------------------------------------------------------------------------------
| ManySAT 2.2 - all threads statistics           DETERMINISTIC MODE ? N              initial limit export clauses : 100 |
|-----------------------------------------------------------------------------------------------------------------------|
|  Thread  | winner  |   #restarts   |   decisions   |  #conflicts   |   % shared cls  |  #extra units | #extra clauses |         
|----------|---------|---------------|---------------|---------------|-----------------|---------------|----------------|
|        0 |       x |             1 |            11 |             0 |             0 % |             0 |              0 |
|        1 |         |             1 |            15 |             0 |             0 % |             0 |              0 |
|        2 |         |             1 |            13 |             0 |             0 % |             0 |              0 |
|        3 |         |             1 |            17 |             0 |             0 % |             0 |              0 |
|        4 |         |             1 |            15 |             0 |             0 % |             0 |              0 |
|        5 |         |             1 |            14 |             0 |             0 % |             0 |              0 |
|        6 |         |             1 |            17 |             0 |             0 % |             0 |              0 |
|        7 |         |             1 |            13 |             0 |             0 % |             0 |              0 |
|----------------------------------------------------|---------------|-----------------|---------------|----------------|
|                                                    |             0 |             0 % |             0 |              0 |
 -----------------------------------------------------------------------------------------------------------------------
 DETERMINISTIC_MODE? : NO 
 CONTROL POLICY?	 : STATIC (fixed Limit Export Clauses)  
 LIMIT EXPORT CLAUSES (PAIRWISE) : [identity] x 100

  ----------------------------------------         
   winner:  more statistics           
  ----------------------------------------         
  restarts              : 1
  conflicts             : 0              (0 /sec)
  decisions             : 11             (0.00 % random) (110 /sec)
  propagations          : 600            (6000 /sec)
  conflict literals     : 0              (-nan % deleted)
  Memory used           : 951.00 MB
  CPU time              : 0.100006 s

SATISFIABLE
